!   File created by the GAMESS Input Deck Generator Plugin for Avogadro
 $BASIS GBASIS=STO NGAUSS=3 $END
 $CONTRL SCFTYP=RHF RUNTYP=ENERGY $END


 $DATA 
Title
C1
  H     1.0      0.2050000000     -0.8914200000      2.7775600000
  C     6.0     -0.2736600000     -0.9331600000      1.7909500000
  H     1.0     -0.9447500000     -1.8024500000      1.7881500000
  H     1.0     -0.9013300000     -0.0374300000      1.6925700000
  C     6.0      0.7537600000     -1.0181700000      0.6850900000
  H     1.0      1.4382000000     -0.1480500000      0.7359100000
  H     1.0      1.3960800000     -1.9092300000      0.8320000000
  C     6.0      0.0968800000     -1.0770300000     -0.6849900000
  H     1.0      0.4571900000     -0.2362300000     -1.3106100000
  H     1.0      0.4147100000     -1.9973300000     -1.2143000000
  C     6.0     -1.4108000000     -1.0350500000     -0.5808200000
  H     1.0     -1.8001300000     -1.8797100000      0.0031000000
  H     1.0     -1.7577700000     -0.1146200000     -0.0925100000
  H     1.0     -1.8802500000     -1.0774900000     -1.5718300000
 $END
