! B3LYP 6-31G* LargePrint
%output
print[p_mos] true
print[p_basis] 5
end
%paras
Alpha=0,360,36
end
* int 0 1
C 0 0 0 0 0     0
H 1 0 0 1.070 0     0
H 1 2 0 1.070 109.471   0
H 1 2 3 1.070 109.471   240.0
C 1 2 3 1.540 109.471   120.0
H 5 1 2 1.070 109.471    60.0
H 5 1 2 1.070 109.471    180.0
C 5 1 2 1.540 109.471    300.0
H 8 5 1 1.070 109.471    {Alpha+120.0}
H 8 5 1 1.070 109.471    {Alpha+240.0}
C 8 5 1 1.540 109.471    {Alpha+360.0}
H 11 8 5 1.070 109.471    180.0
H 11 8 5 1.070 109.471    300.0
H 11 8 5 1.070 109.471    60.0
*
