&GLOBAL
  PROJECT Multiple_XYZ
  RUN_TYPE ENERGY
  PRINT_LEVEL LOW
&END GLOBAL
&FORCE_EVAL
  METHOD QS
  &DFT
    BASIS_SET_FILE_NAME  STO-3G
    POTENTIAL_FILE_NAME  POTENTIAL
    &MGRID
      NGRIDS 5
      CUTOFF 600
    &END MGRID
    &QS
      METHOD GAPW 
    &END QS
    &XC
      &XC_FUNCTIONAL B3LYP
      &END XC_FUNCTIONAL
    &END XC
  &END DFT
  &SUBSYS
    &CELL
      ABC 10.0 10.0 10.0
      PERIODIC NONE
    &END CELL
    &TOPOLOGY
